data;

set A := 240574 551290 73944 535882 200071 837842 551738 22155 157780 416708 702996 44060 136806 893785 356741 384425 937675 265586 514006 857816 38809 424331 438652 706697 87025 105527 852629 87000 929662 309095 243047 189079 252917 413797 744485 338454;
param T := 9000000;

end;
